minimize
obj: -0.7189999999999996 - 2.030000000000001 x_1_ + 0.6800000000000006 z_1,2_ - 0.06800000000000006 u_1,2_ + 0.5599999999999992 z_1,3_ - 0.11199999999999984 u_1,3_ + 0.4400000000000026 z_1,4_ - 0.1320000000000008 u_1,4_ + 1.875 x_2_ + 3 d_2,1_ + 2.75 d_2,2_ + 1.75 d_2,3_
subject to
c1_1: 1 d_1,1_ <= 0.1
c2_1: 1 d_1,2_ <= 0.1
c3_1: 1 d_1,3_ <= 0.10000000000000003
c4_1: 1 d_1,4_ <= 0.09999999999999998
c5_1: 1 x_1_ - 1 z_1,2_ + 2 u_1,2_ <= 2
c6: 1 x_1_ - 1 z_1,3_ + 2 u_1,3_ <= 2
c7: 1 x_1_ - 1 z_1,4_ + 2 u_1,4_ <= 2
c8: 1 d_2,1_ <= 0.25
c9: 1 d_2,2_ <= 0.25
c10: 1 d_2,3_ <= 0.25
c11: 1 d_2,4_ <= 0.25
c1: 1 x_1_ + 1 d_1,1_ + 1 d_1,2_ + 1 d_1,3_ >= 0.30000000000000004
c2: 1 z_1,2_ >= 0
c3: 1 z_1,3_ >= 0
c4: 1 z_1,4_ >= 0
c5: 1 x_2_ + 1 d_2,1_ + 1 d_2,2_ + 1 d_2,3_ >= 0.75
Bounds
x_1_ >= 0
x_2_ >= 0
d_1,1_ >= 0
d_2,1_ >= 0
d_1,2_ >= 0
d_2,2_ >= 0
d_1,3_ >= 0
d_2,3_ >= 0
d_1,4_ >= 0
d_2,4_ >= 0
z_1,1_ >= 0
z_2,1_ >= 0
z_1,2_ >= 0
z_2,2_ >= 0
z_1,3_ >= 0
z_2,3_ >= 0
z_1,4_ >= 0
z_2,4_ >= 0
z_1,5_ >= 0
z_2,5_ >= 0
Binary
u_1,1_
u_2,1_
u_1,2_
u_2,2_
u_1,3_
u_2,3_
u_1,4_
u_2,4_
u_1,5_
u_2,5_
End
